# Generated by ConicBenchmarkUtilities.jl
VER
2

OBJSENSE
MIN

VAR
123 1
F 123

INT
40
18
19
20
21
22
23
24
25
26
27
28
29
30
31
32
33
34
35
36
37
70
72
74
76
77
78
81
84
85
86
88
90
92
94
96
98
99
100
101
102

CON
369 345
L= 1
L= 1
L= 1
L= 1
L= 1
L= 1
L= 1
L= 1
L= 1
L= 1
L= 1
L= 1
L= 1
EXP 3
L+ 1
EXP 3
L+ 1
L+ 1
L+ 1
L+ 1
L+ 1
EXP 3
L+ 1
EXP 3
L+ 1
L+ 1
L+ 1
L+ 1
L+ 1
L+ 1
L+ 1
L+ 1
L+ 1
L+ 1
L+ 1
L+ 1
L+ 1
EXP 3
L+ 1
EXP 3
L+ 1
L+ 1
L+ 1
L+ 1
L+ 1
L+ 1
L+ 1
L+ 1
L+ 1
L+ 1
L+ 1
L+ 1
L+ 1
L+ 1
L+ 1
L+ 1
L+ 1
L+ 1
L+ 1
EXP 3
L+ 1
EXP 3
L+ 1
L+ 1
L+ 1
L+ 1
L+ 1
EXP 3
L+ 1
EXP 3
L+ 1
L+ 1
L+ 1
L+ 1
L+ 1
EXP 3
L+ 1
EXP 3
L+ 1
L+ 1
L+ 1
L+ 1
L+ 1
L+ 1
L+ 1
L+ 1
L+ 1
L+ 1
L+ 1
L+ 1
L+ 1
L+ 1
L+ 1
L+ 1
L+ 1
L+ 1
L+ 1
L+ 1
L+ 1
L+ 1
L+ 1
L+ 1
L+ 1
L+ 1
L+ 1
L+ 1
L+ 1
L+ 1
L+ 1
L+ 1
L+ 1
L+ 1
L+ 1
L+ 1
L+ 1
L+ 1
L+ 1
L+ 1
L+ 1
L+ 1
L+ 1
L+ 1
L+ 1
L+ 1
L+ 1
L+ 1
L+ 1
L+ 1
L+ 1
L+ 1
L+ 1
L+ 1
L+ 1
L+ 1
L+ 1
L+ 1
L+ 1
L+ 1
L+ 1
L+ 1
L+ 1
L+ 1
L+ 1
L+ 1
L+ 1
L+ 1
L+ 1
L+ 1
L+ 1
L+ 1
L+ 1
L+ 1
L+ 1
L+ 1
L+ 1
L+ 1
L+ 1
L+ 1
L+ 1
L+ 1
L+ 1
L+ 1
L+ 1
L+ 1
L+ 1
L+ 1
L+ 1
L+ 1
L+ 1
L+ 1
L+ 1
L+ 1
L+ 1
L+ 1
L+ 1
L+ 1
L+ 1
L+ 1
L+ 1
L+ 1
L+ 1
L+ 1
L+ 1
L+ 1
L+ 1
L+ 1
L+ 1
L+ 1
L+ 1
L= 1
L= 1
L+ 1
L+ 1
L+ 1
L+ 1
L+ 1
L+ 1
L+ 1
L+ 1
L+ 1
L+ 1
L+ 1
L+ 1
L+ 1
L+ 1
L+ 1
L+ 1
L+ 1
L+ 1
L+ 1
L+ 1
L+ 1
L+ 1
L+ 1
L+ 1
L+ 1
L+ 1
L+ 1
L+ 1
L+ 1
L+ 1
L+ 1
L+ 1
L+ 1
L+ 1
L+ 1
L+ 1
L+ 1
L+ 1
L+ 1
L+ 1
L+ 1
L+ 1
L+ 1
L+ 1
L+ 1
L+ 1
L+ 1
L+ 1
L+ 1
L+ 1
L+ 1
L+ 1
L+ 1
L+ 1
L+ 1
L+ 1
L+ 1
L+ 1
L+ 1
L+ 1
L+ 1
L+ 1
L+ 1
L+ 1
L+ 1
L+ 1
L+ 1
L+ 1
L+ 1
L+ 1
L+ 1
L+ 1
L+ 1
L+ 1
L+ 1
L+ 1
L+ 1
L+ 1
L+ 1
L+ 1
L+ 1
L+ 1
L+ 1
L+ 1
L+ 1
L+ 1
L+ 1
L+ 1
L+ 1
L+ 1
L+ 1
L+ 1
L+ 1
L+ 1
L+ 1
L+ 1
L+ 1
L+ 1
L+ 1
L+ 1
L+ 1
L+ 1
L+ 1
L+ 1
L+ 1
L+ 1
L+ 1
L+ 1
L+ 1
L+ 1
L+ 1
L+ 1
L+ 1
L+ 1
L+ 1
L+ 1
L+ 1
L+ 1
L+ 1
L+ 1
L+ 1
L+ 1
L+ 1
L+ 1
L+ 1
L+ 1
L+ 1
L+ 1
L+ 1
L+ 1
L+ 1
L+ 1
L+ 1
L+ 1
L+ 1
L+ 1
L+ 1
L+ 1
L+ 1
L+ 1
L+ 1
L+ 1
L+ 1
L+ 1
L+ 1
L+ 1
L+ 1
L+ 1
L+ 1
L+ 1
L+ 1
L+ 1
L+ 1
L+ 1

OBJACOORD
1
38 -1.0

ACOORD
659
0 0 -1.0
1 0 1.0
235 0 1.0
236 0 -1.0
0 1 -1.0
2 1 1.0
237 1 1.0
238 1 -1.0
0 2 5.0
5 2 -1.0
249 2 1.0
0 3 10.0
6 3 -1.0
250 3 1.0
0 4 -2.0
61 4 0.5
63 4 -0.5
67 4 -1.0
259 4 1.0
260 4 -1.0
0 5 -1.0
62 5 0.5
64 5 -0.5
68 5 -1.0
261 5 1.0
262 5 -1.0
0 6 80.0
11 6 -1.0
277 6 1.0
0 7 90.0
12 7 -1.0
278 7 1.0
0 8 285.0
74 8 -1.0
81 8 -1.0
279 8 1.0
0 9 390.0
78 9 -1.0
82 9 -1.0
280 9 1.0
0 10 290.0
86 10 -1.0
93 10 -1.0
281 10 1.0
0 11 405.0
90 11 -1.0
94 11 -1.0
282 11 1.0
0 12 280.0
98 12 -1.0
105 12 -1.0
283 12 1.0
0 13 400.0
102 13 -1.0
106 13 -1.0
284 13 1.0
0 14 290.0
107 14 -1.0
109 14 1.0
113 14 -1.0
285 14 1.0
0 15 300.0
108 15 -1.0
110 15 1.0
114 15 -1.0
286 15 1.0
0 16 350.0
115 16 -1.0
117 16 1.0
121 16 -1.0
287 16 1.0
0 17 250.0
116 17 -1.0
118 17 1.0
122 17 -1.0
288 17 1.0
0 18 -5.0
123 18 -5.0
143 18 5.0
173 18 -1.0
174 18 -1.0
193 18 1.0
329 18 1.0
330 18 -1.0
0 19 -4.0
124 19 -4.0
144 19 4.0
173 19 -1.0
174 19 -1.0
194 19 1.0
331 19 1.0
332 19 -1.0
0 20 -8.0
125 20 -8.0
145 20 8.0
175 20 -1.0
176 20 -1.0
195 20 1.0
333 20 1.0
334 20 -1.0
0 21 -7.0
126 21 -7.0
146 21 7.0
175 21 -1.0
176 21 -1.0
196 21 1.0
335 21 1.0
336 21 -1.0
0 22 -6.0
127 22 -6.0
147 22 6.0
177 22 -1.0
178 22 -1.0
197 22 1.0
337 22 1.0
338 22 -1.0
0 23 -9.0
128 23 -9.0
148 23 9.0
177 23 -1.0
178 23 -1.0
198 23 1.0
339 23 1.0
340 23 -1.0
0 24 -10.0
129 24 -10.0
149 24 10.0
179 24 -1.0
180 24 -1.0
199 24 1.0
341 24 1.0
342 24 -1.0
0 25 -9.0
130 25 -9.0
150 25 9.0
179 25 -1.0
180 25 -1.0
200 25 1.0
343 25 1.0
344 25 -1.0
0 26 -6.0
131 26 -6.0
151 26 6.0
181 26 -1.0
182 26 -1.0
201 26 1.0
345 26 1.0
346 26 -1.0
0 27 -10.0
132 27 -10.0
152 27 10.0
181 27 -1.0
182 27 -1.0
202 27 1.0
347 27 1.0
348 27 -1.0
0 28 -7.0
133 28 -7.0
153 28 7.0
183 28 -1.0
184 28 -1.0
203 28 1.0
349 28 1.0
350 28 -1.0
0 29 -7.0
134 29 -7.0
154 29 7.0
183 29 -1.0
184 29 -1.0
204 29 1.0
351 29 1.0
352 29 -1.0
0 30 -4.0
135 30 -4.0
155 30 4.0
185 30 -1.0
186 30 -1.0
205 30 1.0
353 30 1.0
354 30 -1.0
0 31 -3.0
136 31 -3.0
156 31 3.0
185 31 -1.0
186 31 -1.0
206 31 1.0
355 31 1.0
356 31 -1.0
0 32 -5.0
137 32 -5.0
157 32 5.0
187 32 -1.0
188 32 -1.0
207 32 1.0
357 32 1.0
358 32 -1.0
0 33 -6.0
138 33 -6.0
158 33 6.0
187 33 -1.0
188 33 -1.0
208 33 1.0
359 33 1.0
360 33 -1.0
0 34 -2.0
139 34 -2.0
159 34 2.0
189 34 -1.0
190 34 -1.0
209 34 1.0
361 34 1.0
362 34 -1.0
0 35 -5.0
140 35 -5.0
160 35 5.0
189 35 -1.0
190 35 -1.0
210 35 1.0
363 35 1.0
364 35 -1.0
0 36 -4.0
141 36 -4.0
161 36 4.0
191 36 -1.0
192 36 -1.0
211 36 1.0
365 36 1.0
366 36 -1.0
0 37 -7.0
142 37 -7.0
162 37 7.0
191 37 -1.0
192 37 -1.0
212 37 1.0
367 37 1.0
368 37 -1.0
0 38 -1.0
1 39 -1.0
13 39 1.0
21 39 -1.0
239 39 1.0
1 40 -1.0
25 40 1.0
33 40 -1.0
241 40 1.0
2 41 -1.0
17 41 1.0
22 41 -1.0
240 41 1.0
2 42 -1.0
29 42 1.0
34 42 -1.0
242 42 1.0
3 43 -1.0
16 43 -1.0
23 43 -1.0
243 43 1.0
3 44 -1.0
28 44 -1.0
35 44 -1.0
245 44 1.0
3 45 1.0
5 45 1.0
247 45 1.0
4 46 -1.0
20 46 -1.0
24 46 -1.0
244 46 1.0
4 47 -1.0
32 47 -1.0
36 47 -1.0
246 47 1.0
4 48 1.0
6 48 1.0
248 48 1.0
5 49 -1.0
7 49 1.0
251 49 1.0
6 50 -1.0
8 50 1.0
252 50 1.0
7 51 -1.0
37 51 0.75
39 51 -0.75
41 51 -1.0
253 51 1.0
7 52 -1.0
45 52 1.0
53 52 -1.0
255 52 1.0
7 53 -1.0
57 53 1.0
59 53 -1.0
65 53 -1.0
257 53 1.0
8 54 -1.0
38 54 0.75
40 54 -0.75
42 54 -1.0
254 54 1.0
8 55 -1.0
49 55 1.0
54 55 -1.0
256 55 1.0
8 56 -1.0
58 56 1.0
60 56 -1.0
66 56 -1.0
258 56 1.0
9 57 1.0
37 57 -1.0
39 57 1.0
43 57 -1.0
263 57 1.0
9 58 -1.0
71 58 1.0
79 58 -1.0
269 58 1.0
9 59 -1.0
83 59 1.0
91 59 -1.0
271 59 1.0
10 60 1.0
38 60 -1.0
40 60 1.0
44 60 -1.0
264 60 1.0
10 61 -1.0
75 61 1.0
80 61 -1.0
270 61 1.0
10 62 -1.0
87 62 1.0
92 62 -1.0
272 62 1.0
11 63 1.0
57 63 -1.0
59 63 1.0
61 63 -1.0
63 63 1.0
69 63 -1.0
267 63 1.0
11 64 -1.0
107 64 0.9
109 64 -0.9
111 64 -1.0
273 64 1.0
11 65 -1.0
115 65 0.6
117 65 -0.6
119 65 -1.0
275 65 1.0
12 66 1.0
58 66 -1.0
60 66 1.0
62 66 -1.0
64 66 1.0
70 66 -1.0
268 66 1.0
12 67 -1.0
108 67 0.9
110 67 -0.9
112 67 -1.0
274 67 1.0
12 68 -1.0
116 68 0.6
118 68 -0.6
120 68 -1.0
276 68 1.0
15 69 1.0
16 69 1.0
16 70 -1.0
21 70 40.0
23 70 3.71357206670431
163 70 -1.0
193 70 -1.0
194 70 1.0
213 70 1.0
219 70 1.0
221 70 1.0
223 70 1.0
289 70 1.0
290 70 -1.0
19 71 1.0
20 71 1.0
20 72 -1.0
22 72 40.0
24 72 3.71357206670431
163 72 1.0
194 72 -1.0
214 72 1.0
220 72 1.0
222 72 1.0
224 72 1.0
291 72 1.0
292 72 -1.0
27 73 1.0
28 73 1.2
28 74 -1.0
33 74 40.0
35 74 4.45628648004517
164 74 -1.0
195 74 -1.0
196 74 1.0
213 74 1.0
219 74 1.0
221 74 1.0
223 74 1.0
293 74 1.0
294 74 -1.0
31 75 1.0
32 75 1.2
32 76 -1.0
34 76 40.0
36 76 4.45628648004517
164 76 1.0
196 76 -1.0
214 76 1.0
220 76 1.0
222 76 1.0
224 76 1.0
295 76 1.0
296 76 -1.0
37 77 -1.0
39 77 -1.0
41 77 4.45628648004517
43 77 3.34221486003388
165 77 -1.0
197 77 -1.0
198 77 1.0
215 77 -1.0
219 77 -1.0
225 77 1.0
227 77 1.0
297 77 1.0
298 77 -1.0
38 78 -1.0
40 78 -1.0
42 78 4.45628648004517
44 78 3.34221486003388
165 78 1.0
198 78 -1.0
216 78 -1.0
220 78 -1.0
226 78 1.0
228 78 1.0
299 78 1.0
300 78 -1.0
47 79 1.0
48 79 1.5
48 80 -1.0
55 80 -1.0
95 80 1.0
103 80 -1.0
265 80 1.0
48 81 -1.0
53 81 4.45628648004517
55 81 2.54515263975353
166 81 -1.0
199 81 -1.0
200 81 1.0
217 81 -1.0
221 81 -1.0
229 81 1.0
301 81 1.0
302 81 -1.0
51 82 1.0
52 82 1.5
52 83 -1.0
56 83 -1.0
99 83 1.0
104 83 -1.0
266 83 1.0
52 84 -1.0
54 84 4.45628648004517
56 84 2.54515263975353
166 84 1.0
200 84 -1.0
218 84 -1.0
222 84 -1.0
230 84 1.0
303 84 1.0
304 84 -1.0
57 85 -1.0
59 85 -1.0
61 85 -1.0
63 85 -1.0
65 85 4.45628648004517
67 85 30.0
69 85 15.0
167 85 -1.0
201 85 -1.0
202 85 1.0
223 85 -1.0
231 85 1.0
233 85 1.0
305 85 1.0
306 85 -1.0
58 86 -1.0
60 86 -1.0
62 86 -1.0
64 86 -1.0
66 86 4.45628648004517
68 86 30.0
70 86 15.0
167 86 1.0
202 86 -1.0
224 86 -1.0
232 86 1.0
234 86 1.0
307 86 1.0
308 86 -1.0
73 87 1.0
74 87 1.25
74 88 -1.0
79 88 3.34221486003388
81 88 1.83548069293539
168 88 -1.0
203 88 -1.0
204 88 1.0
215 88 1.0
225 88 -1.0
309 88 1.0
310 88 -1.0
77 89 1.0
78 89 1.25
78 90 -1.0
80 90 3.34221486003388
82 90 1.83548069293539
168 90 1.0
204 90 -1.0
216 90 1.0
226 90 -1.0
311 90 1.0
312 90 -1.0
85 91 1.0
86 91 0.9
86 92 -1.0
91 92 3.34221486003388
93 92 1.32154609891348
169 92 -1.0
205 92 -1.0
206 92 1.0
215 92 1.0
227 92 -1.0
313 92 1.0
314 92 -1.0
89 93 1.0
90 93 0.9
90 94 -1.0
92 94 3.34221486003388
94 94 1.32154609891348
169 94 1.0
206 94 -1.0
216 94 1.0
228 94 -1.0
315 94 1.0
316 94 -1.0
97 95 1.0
98 95 1.0
98 96 -1.0
103 96 2.54515263975353
105 96 1.26558121681553
170 96 -1.0
207 96 -1.0
208 96 1.0
217 96 1.0
229 96 -1.0
317 96 1.0
318 96 -1.0
101 97 1.0
102 97 1.0
102 98 -1.0
104 98 2.54515263975353
106 98 1.26558121681553
170 98 1.0
208 98 -1.0
218 98 1.0
230 98 -1.0
319 98 1.0
320 98 -1.0
107 99 -1.0
109 99 -1.0
111 99 15.0
113 99 13.5
171 99 -1.0
209 99 -1.0
210 99 1.0
231 99 -1.0
321 99 1.0
322 99 -1.0
108 100 -1.0
110 100 -1.0
112 100 15.0
114 100 13.5
171 100 1.0
210 100 -1.0
232 100 -1.0
323 100 1.0
324 100 -1.0
115 101 -1.0
117 101 -1.0
119 101 15.0
121 101 9.0
172 101 -1.0
211 101 -1.0
212 101 1.0
233 101 -1.0
325 101 1.0
326 101 -1.0
116 102 -1.0
118 102 -1.0
120 102 15.0
122 102 9.0
172 102 1.0
212 102 -1.0
234 102 -1.0
327 102 1.0
328 102 -1.0
123 103 -1.0
143 103 1.0
124 104 -1.0
144 104 1.0
125 105 -1.0
145 105 1.0
126 106 -1.0
146 106 1.0
127 107 -1.0
147 107 1.0
128 108 -1.0
148 108 1.0
129 109 -1.0
149 109 1.0
130 110 -1.0
150 110 1.0
131 111 -1.0
151 111 1.0
132 112 -1.0
152 112 1.0
133 113 -1.0
153 113 1.0
134 114 -1.0
154 114 1.0
135 115 -1.0
155 115 1.0
136 116 -1.0
156 116 1.0
137 117 -1.0
157 117 1.0
138 118 -1.0
158 118 1.0
139 119 -1.0
159 119 1.0
140 120 -1.0
160 120 1.0
141 121 -1.0
161 121 1.0
142 122 -1.0
162 122 1.0

BCOORD
122
13 1.0
14 1.0
16 1.0
17 1.0
18 1.0
20 1.0
25 1.0
26 1.0
28 1.0
29 1.0
30 1.0
32 1.0
37 1.0
38 1.0
39 1.0
40 1.0
45 1.0
46 1.0
48 1.0
49 1.0
50 1.0
52 1.0
57 1.0
58 1.0
59 1.0
60 1.0
61 1.0
62 1.0
63 1.0
64 1.0
71 1.0
72 1.0
74 1.0
75 1.0
76 1.0
78 1.0
83 1.0
84 1.0
86 1.0
87 1.0
88 1.0
90 1.0
95 1.0
96 1.0
98 1.0
99 1.0
100 1.0
102 1.0
107 1.0
108 1.0
109 1.0
110 1.0
115 1.0
116 1.0
117 1.0
118 1.0
173 1.0
174 1.0
175 1.0
176 1.0
177 1.0
178 1.0
179 1.0
180 1.0
181 1.0
182 1.0
183 1.0
184 1.0
185 1.0
186 1.0
187 1.0
188 1.0
189 1.0
190 1.0
191 1.0
192 1.0
213 -1.0
214 -1.0
236 40.0
238 40.0
260 30.0
262 30.0
290 1.0
292 1.0
294 1.0
296 1.0
298 1.0
300 1.0
302 1.0
304 1.0
306 1.0
308 1.0
310 1.0
312 1.0
314 1.0
316 1.0
318 1.0
320 1.0
322 1.0
324 1.0
326 1.0
328 1.0
330 1.0
332 1.0
334 1.0
336 1.0
338 1.0
340 1.0
342 1.0
344 1.0
346 1.0
348 1.0
350 1.0
352 1.0
354 1.0
356 1.0
358 1.0
360 1.0
362 1.0
364 1.0
366 1.0
368 1.0
